row=9;
column=9;

Board=[|8,0,3,0,6,2,0,0,1|1,0,9,0,0,0,0,7,0|5,0,0,9,0,0,8,2,3|7,0,0,6,2,1,0,8,0|2,1,8,5,7,9,3,6,0|9,6,5,3,0,8,0,1,7|0,0,0,0,0,6,1,0,8|0,8,0,0,9,0,0,0,5|0,0,0,0,0,0,7,3,0|];
OE=[|0,0,1,1,0,0,1,1,1|1,0,1,0,1,1,0,1,0|1,1,0,1,1,0,0,0,1|1,1,0,0,0,1,1,0,1|0,1,0,1,1,1,1,0,0|1,0,1,1,0,0,0,1,1|0,1,1,0,1,0,1,1,0|1,0,0,1,1,1,0,0,1|0,1,1,0,0,1,1,1,0|];
